\Problem name: compact

Minimize
OBJROW: C
Subject To
ord(0,1):  - x(0,1) + x(0,2) >= 7
ord(0,2):  x(0,0) - x(0,2) >= 7
ord(1,1):  x(1,0) - x(1,1) >= 4
ord(1,2):  - x(1,0) + x(1,2) >= 3
ord(2,1):  - x(2,1) + x(2,2) >= 7
ord(2,2):  x(2,0) - x(2,2) >= 6
triangle2(0,1,0):  y(0,1,0) + y(1,0,0) = 1
triangle2(0,1,1):  y(0,1,1) + y(1,0,1) = 1
triangle2(0,1,2):  y(0,1,2) + y(1,0,2) = 1
triangle2(0,2,0):  y(0,2,0) + y(2,0,0) = 1
triangle2(0,2,1):  y(0,2,1) + y(2,0,1) = 1
triangle2(0,2,2):  y(0,2,2) + y(2,0,2) = 1
triangle2(1,2,0):  y(1,2,0) + y(2,1,0) = 1
triangle2(1,2,1):  y(1,2,1) + y(2,1,1) = 1
triangle2(1,2,2):  y(1,2,2) + y(2,1,2) = 1
MCLinV(0,1,0):  - x(0,0) + v(0,1,0)p - v(0,1,0)n + x(1,0) = -3
MCLinV(1,0,0):  x(0,0) + v(1,0,0)p - v(1,0,0)n - x(1,0) = -1
MCLin1(0,1,0):  u(0,1,0)p - u(0,1,0)n >= 0
MCLin2(0,1,0):  23 y(1,0,0) + u(0,1,0)p - u(0,1,0)n >= 0
MCLin3(0,1,0):  -36 y(1,0,0) - v(0,1,0)p + v(0,1,0)n + u(0,1,0)p - u(0,1,0)n >= -36
MCLin4(0,1,0):  -36 y(1,0,0) + u(0,1,0)p - u(0,1,0)n <= 0
MCLin5(0,1,0):  23 y(1,0,0) - v(0,1,0)p + v(0,1,0)n + u(0,1,0)p - u(0,1,0)n <= 23
MCLin6(1,0,0):  u(1,0,0)p - u(1,0,0)n >= 0
MCLin7(1,0,0):  40 y(0,1,0) + u(1,0,0)p - u(1,0,0)n >= 0
MCLin8(1,0,0):  -19 y(0,1,0) - v(1,0,0)p + v(1,0,0)n + u(1,0,0)p - u(1,0,0)n >= -19
MCLin9(1,0,0):  -19 y(0,1,0) + u(1,0,0)p - u(1,0,0)n <= 0
MCLin10(1,0,0):  40 y(0,1,0) - v(1,0,0)p + v(1,0,0)n + u(1,0,0)p - u(1,0,0)n <= 40
MCLinV(0,1,1):  - x(0,1) + v(0,1,1)p - v(0,1,1)n + x(1,1) = -4
MCLinV(1,0,1):  x(0,1) + v(1,0,1)p - v(1,0,1)n - x(1,1) = -7
MCLin1(0,1,1):  u(0,1,1)p - u(0,1,1)n >= 0
MCLin2(0,1,1):  34 y(1,0,1) + u(0,1,1)p - u(0,1,1)n >= 0
MCLin3(0,1,1):  -25 y(1,0,1) - v(0,1,1)p + v(0,1,1)n + u(0,1,1)p - u(0,1,1)n >= -25
MCLin4(0,1,1):  -25 y(1,0,1) + u(0,1,1)p - u(0,1,1)n <= 0
MCLin5(0,1,1):  34 y(1,0,1) - v(0,1,1)p + v(0,1,1)n + u(0,1,1)p - u(0,1,1)n <= 34
MCLin6(1,0,1):  u(1,0,1)p - u(1,0,1)n >= 0
MCLin7(1,0,1):  36 y(0,1,1) + u(1,0,1)p - u(1,0,1)n >= 0
MCLin8(1,0,1):  -23 y(0,1,1) - v(1,0,1)p + v(1,0,1)n + u(1,0,1)p - u(1,0,1)n >= -23
MCLin9(1,0,1):  -23 y(0,1,1) + u(1,0,1)p - u(1,0,1)n <= 0
MCLin10(1,0,1):  36 y(0,1,1) - v(1,0,1)p + v(1,0,1)n + u(1,0,1)p - u(1,0,1)n <= 36
MCLinV(0,1,2):  - x(0,2) + v(0,1,2)p - v(0,1,2)n + x(1,2) = -7
MCLinV(1,0,2):  x(0,2) + v(1,0,2)p - v(1,0,2)n - x(1,2) = -7
MCLin1(0,1,2):  u(0,1,2)p - u(0,1,2)n >= 0
MCLin2(0,1,2):  37 y(1,0,2) + u(0,1,2)p - u(0,1,2)n >= 0
MCLin3(0,1,2):  -22 y(1,0,2) - v(0,1,2)p + v(0,1,2)n + u(0,1,2)p - u(0,1,2)n >= -22
MCLin4(0,1,2):  -22 y(1,0,2) + u(0,1,2)p - u(0,1,2)n <= 0
MCLin5(0,1,2):  37 y(1,0,2) - v(0,1,2)p + v(0,1,2)n + u(0,1,2)p - u(0,1,2)n <= 37
MCLin6(1,0,2):  u(1,0,2)p - u(1,0,2)n >= 0
MCLin7(1,0,2):  36 y(0,1,2) + u(1,0,2)p - u(1,0,2)n >= 0
MCLin8(1,0,2):  -23 y(0,1,2) - v(1,0,2)p + v(1,0,2)n + u(1,0,2)p - u(1,0,2)n >= -23
MCLin9(1,0,2):  -23 y(0,1,2) + u(1,0,2)p - u(1,0,2)n <= 0
MCLin10(1,0,2):  36 y(0,1,2) - v(1,0,2)p + v(1,0,2)n + u(1,0,2)p - u(1,0,2)n <= 36
MCLinV(0,2,0):  - x(0,0) + v(0,2,0)p - v(0,2,0)n + x(2,0) = -2
MCLinV(2,0,0):  x(0,0) + v(2,0,0)p - v(2,0,0)n - x(2,0) = -1
MCLin1(0,2,0):  u(0,2,0)p - u(0,2,0)n >= 0
MCLin2(0,2,0):  30 y(2,0,0) + u(0,2,0)p - u(0,2,0)n >= 0
MCLin3(0,2,0):  -28 y(2,0,0) - v(0,2,0)p + v(0,2,0)n + u(0,2,0)p - u(0,2,0)n >= -28
MCLin4(0,2,0):  -28 y(2,0,0) + u(0,2,0)p - u(0,2,0)n <= 0
MCLin5(0,2,0):  30 y(2,0,0) - v(0,2,0)p + v(0,2,0)n + u(0,2,0)p - u(0,2,0)n <= 30
MCLin6(2,0,0):  u(2,0,0)p - u(2,0,0)n >= 0
MCLin7(2,0,0):  31 y(0,2,0) + u(2,0,0)p - u(2,0,0)n >= 0
MCLin8(2,0,0):  -27 y(0,2,0) - v(2,0,0)p + v(2,0,0)n + u(2,0,0)p - u(2,0,0)n >= -27
MCLin9(2,0,0):  -27 y(0,2,0) + u(2,0,0)p - u(2,0,0)n <= 0
MCLin10(2,0,0):  31 y(0,2,0) - v(2,0,0)p + v(2,0,0)n + u(2,0,0)p - u(2,0,0)n <= 31
MCLinV(0,2,1):  - x(0,1) + v(0,2,1)p - v(0,2,1)n + x(2,1) = -7
MCLinV(2,0,1):  x(0,1) + v(2,0,1)p - v(2,0,1)n - x(2,1) = -7
MCLin1(0,2,1):  u(0,2,1)p - u(0,2,1)n >= 0
MCLin2(0,2,1):  36 y(2,0,1) + u(0,2,1)p - u(0,2,1)n >= 0
MCLin3(0,2,1):  -22 y(2,0,1) - v(0,2,1)p + v(0,2,1)n + u(0,2,1)p - u(0,2,1)n >= -22
MCLin4(0,2,1):  -22 y(2,0,1) + u(0,2,1)p - u(0,2,1)n <= 0
MCLin5(0,2,1):  36 y(2,0,1) - v(0,2,1)p + v(0,2,1)n + u(0,2,1)p - u(0,2,1)n <= 36
MCLin6(2,0,1):  u(2,0,1)p - u(2,0,1)n >= 0
MCLin7(2,0,1):  36 y(0,2,1) + u(2,0,1)p - u(2,0,1)n >= 0
MCLin8(2,0,1):  -22 y(0,2,1) - v(2,0,1)p + v(2,0,1)n + u(2,0,1)p - u(2,0,1)n >= -22
MCLin9(2,0,1):  -22 y(0,2,1) + u(2,0,1)p - u(2,0,1)n <= 0
MCLin10(2,0,1):  36 y(0,2,1) - v(2,0,1)p + v(2,0,1)n + u(2,0,1)p - u(2,0,1)n <= 36
MCLinV(0,2,2):  - x(0,2) + v(0,2,2)p - v(0,2,2)n + x(2,2) = -6
MCLinV(2,0,2):  x(0,2) + v(2,0,2)p - v(2,0,2)n - x(2,2) = -7
MCLin1(0,2,2):  u(0,2,2)p - u(0,2,2)n >= 0
MCLin2(0,2,2):  35 y(2,0,2) + u(0,2,2)p - u(0,2,2)n >= 0
MCLin3(0,2,2):  -23 y(2,0,2) - v(0,2,2)p + v(0,2,2)n + u(0,2,2)p - u(0,2,2)n >= -23
MCLin4(0,2,2):  -23 y(2,0,2) + u(0,2,2)p - u(0,2,2)n <= 0
MCLin5(0,2,2):  35 y(2,0,2) - v(0,2,2)p + v(0,2,2)n + u(0,2,2)p - u(0,2,2)n <= 35
MCLin6(2,0,2):  u(2,0,2)p - u(2,0,2)n >= 0
MCLin7(2,0,2):  36 y(0,2,2) + u(2,0,2)p - u(2,0,2)n >= 0
MCLin8(2,0,2):  -22 y(0,2,2) - v(2,0,2)p + v(2,0,2)n + u(2,0,2)p - u(2,0,2)n >= -22
MCLin9(2,0,2):  -22 y(0,2,2) + u(2,0,2)p - u(2,0,2)n <= 0
MCLin10(2,0,2):  36 y(0,2,2) - v(2,0,2)p + v(2,0,2)n + u(2,0,2)p - u(2,0,2)n <= 36
MCLinV(1,2,0):  - x(1,0) + v(1,2,0)p - v(1,2,0)n + x(2,0) = -2
MCLinV(2,1,0):  x(1,0) + v(2,1,0)p - v(2,1,0)n - x(2,0) = -3
MCLin1(1,2,0):  u(1,2,0)p - u(1,2,0)n >= 0
MCLin2(1,2,0):  40 y(2,1,0) + u(1,2,0)p - u(1,2,0)n >= 0
MCLin3(1,2,0):  -19 y(2,1,0) - v(1,2,0)p + v(1,2,0)n + u(1,2,0)p - u(1,2,0)n >= -19
MCLin4(1,2,0):  -19 y(2,1,0) + u(1,2,0)p - u(1,2,0)n <= 0
MCLin5(1,2,0):  40 y(2,1,0) - v(1,2,0)p + v(1,2,0)n + u(1,2,0)p - u(1,2,0)n <= 40
MCLin6(2,1,0):  u(2,1,0)p - u(2,1,0)n >= 0
MCLin7(2,1,0):  24 y(1,2,0) + u(2,1,0)p - u(2,1,0)n >= 0
MCLin8(2,1,0):  -35 y(1,2,0) - v(2,1,0)p + v(2,1,0)n + u(2,1,0)p - u(2,1,0)n >= -35
MCLin9(2,1,0):  -35 y(1,2,0) + u(2,1,0)p - u(2,1,0)n <= 0
MCLin10(2,1,0):  24 y(1,2,0) - v(2,1,0)p + v(2,1,0)n + u(2,1,0)p - u(2,1,0)n <= 24
MCLinV(1,2,1):  - x(1,1) + v(1,2,1)p - v(1,2,1)n + x(2,1) = -7
MCLinV(2,1,1):  x(1,1) + v(2,1,1)p - v(2,1,1)n - x(2,1) = -4
MCLin1(1,2,1):  u(1,2,1)p - u(1,2,1)n >= 0
MCLin2(1,2,1):  36 y(2,1,1) + u(1,2,1)p - u(1,2,1)n >= 0
MCLin3(1,2,1):  -23 y(2,1,1) - v(1,2,1)p + v(1,2,1)n + u(1,2,1)p - u(1,2,1)n >= -23
MCLin4(1,2,1):  -23 y(2,1,1) + u(1,2,1)p - u(1,2,1)n <= 0
MCLin5(1,2,1):  36 y(2,1,1) - v(1,2,1)p + v(1,2,1)n + u(1,2,1)p - u(1,2,1)n <= 36
MCLin6(2,1,1):  u(2,1,1)p - u(2,1,1)n >= 0
MCLin7(2,1,1):  34 y(1,2,1) + u(2,1,1)p - u(2,1,1)n >= 0
MCLin8(2,1,1):  -25 y(1,2,1) - v(2,1,1)p + v(2,1,1)n + u(2,1,1)p - u(2,1,1)n >= -25
MCLin9(2,1,1):  -25 y(1,2,1) + u(2,1,1)p - u(2,1,1)n <= 0
MCLin10(2,1,1):  34 y(1,2,1) - v(2,1,1)p + v(2,1,1)n + u(2,1,1)p - u(2,1,1)n <= 34
MCLinV(1,2,2):  - x(1,2) + v(1,2,2)p - v(1,2,2)n + x(2,2) = -6
MCLinV(2,1,2):  x(1,2) + v(2,1,2)p - v(2,1,2)n - x(2,2) = -7
MCLin1(1,2,2):  u(1,2,2)p - u(1,2,2)n >= 0
MCLin2(1,2,2):  35 y(2,1,2) + u(1,2,2)p - u(1,2,2)n >= 0
MCLin3(1,2,2):  -24 y(2,1,2) - v(1,2,2)p + v(1,2,2)n + u(1,2,2)p - u(1,2,2)n >= -24
MCLin4(1,2,2):  -24 y(2,1,2) + u(1,2,2)p - u(1,2,2)n <= 0
MCLin5(1,2,2):  35 y(2,1,2) - v(1,2,2)p + v(1,2,2)n + u(1,2,2)p - u(1,2,2)n <= 35
MCLin6(2,1,2):  u(2,1,2)p - u(2,1,2)n >= 0
MCLin7(2,1,2):  37 y(1,2,2) + u(2,1,2)p - u(2,1,2)n >= 0
MCLin8(2,1,2):  -22 y(1,2,2) - v(2,1,2)p + v(2,1,2)n + u(2,1,2)p - u(2,1,2)n >= -22
MCLin9(2,1,2):  -22 y(1,2,2) + u(2,1,2)p - u(2,1,2)n <= 0
MCLin10(2,1,2):  37 y(1,2,2) - v(2,1,2)p + v(2,1,2)n + u(2,1,2)p - u(2,1,2)n <= 37
makespan(0):  C - x(0,0) >= 1
makespan(1):  C - x(1,2) >= 7
makespan(2):  C - x(2,0) >= 2
cut_clique_1(0,1):  0.44580 x(0,1) + 0.89080 x(1,1) + 0.53085 x(2,1) >= 1
cut_clique_1(1,1):  0.25145 x(0,1) + 0.51962 x(1,1) + 0.95176 x(2,1) >= 1
cut_clique_1(2,1):  0.34463 x(0,1) + 0.72180 x(1,1) + 0.72044 x(2,1) >= 1
cut_clique_1(3,1):  0.29822 x(0,1) + 0.72180 x(1,1) + 0.80049 x(2,1) >= 1
cut_clique_1(4,1):  0.38350 x(0,1) + 0.89080 x(1,1) + 0.62453 x(2,1) >= 1
cut_clique_1(5,1):  0.41204 x(0,1) + 0.96096 x(1,1) + 0.37404 x(2,1) >= 1
cut_clique_1(6,1):  0.41204 x(0,1) + 0.99083 x(1,1) + 0.37404 x(2,1) >= 1
cut_clique_1(7,1):  0.37200 x(0,1) + 0.89080 x(1,1) + 0.53085 x(2,1) >= 1
cut_clique_1(8,1):  0.25399 x(0,1) + 0.51962 x(1,1) + 0.95176 x(2,1) >= 1
cut_clique_1(9,1):  0.23636 x(0,1) + 0.52552 x(1,1) + 0.95176 x(2,1) >= 1
cut_clique_1(10,1):  0.44580 x(0,1) + 0.92643 x(1,1) + 0.53085 x(2,1) >= 1
cut_clique_1(11,1):  0.29822 x(0,1) + 0.57891 x(1,1) + 0.90503 x(2,1) >= 1
cut_clique_1(12,1):  0.39804 x(0,1) + 0.89080 x(1,1) + 0.53085 x(2,1) >= 1
cut_clique_1(13,1):  0.46297 x(0,1) + 0.90396 x(1,1) + 0.39745 x(2,1) >= 1
cut_clique_1(14,1):  0.25145 x(0,1) + 0.52552 x(1,1) + 0.95176 x(2,1) >= 1
cut_clique_1(15,1):  0.34463 x(0,1) + 0.78041 x(1,1) + 0.72044 x(2,1) >= 1
cut_clique_1(16,1):  0.29822 x(0,1) + 0.72180 x(1,1) + 0.72044 x(2,1) >= 1
cut_clique_1(17,1):  0.44580 x(0,1) + 0.91717 x(1,1) + 0.46184 x(2,1) >= 1
cut_clique_1(18,1):  0.44580 x(0,1) + 0.92643 x(1,1) + 0.46184 x(2,1) >= 1
cut_clique_1(19,1):  0.29822 x(0,1) + 0.51231 x(1,1) + 0.90503 x(2,1) >= 1
cut_clique_1(20,1):  0.46339 x(0,1) + 0.90396 x(1,1) + 0.39745 x(2,1) >= 1
cut_clique_1(21,1):  0.25145 x(0,1) + 0.61107 x(1,1) + 0.95176 x(2,1) >= 1
cut_clique_1(22,1):  0.38350 x(0,1) + 0.89080 x(1,1) + 0.71785 x(2,1) >= 1
cut_clique_1(23,1):  0.38350 x(0,1) + 0.90898 x(1,1) + 0.71785 x(2,1) >= 1
cut_clique_1(24,1):  0.34463 x(0,1) + 0.73623 x(1,1) + 0.72044 x(2,1) >= 1
cut_clique_1(25,1):  0.46339 x(0,1) + 0.90396 x(1,1) + 0.37495 x(2,1) >= 1
cut_clique_1(26,1):  0.41204 x(0,1) + 0.96096 x(1,1) + 0.34823 x(2,1) >= 1
cut_clique_1(27,1):  0.34463 x(0,1) + 0.90644 x(1,1) + 0.72044 x(2,1) >= 1
cut_clique_1(28,1):  0.36875 x(0,1) + 0.90644 x(1,1) + 0.67722 x(2,1) >= 1
cut_clique_1(29,1):  0.46297 x(0,1) + 0.87684 x(1,1) + 0.39745 x(2,1) >= 1
cut_clique_1(30,1):  0.31910 x(0,1) + 0.72180 x(1,1) + 0.72044 x(2,1) >= 1
cut_clique_1(31,1):  0.41204 x(0,1) + 0.96096 x(1,1) + 0.36656 x(2,1) >= 1
cut_clique_1(32,1):  0.41204 x(0,1) + 0.99083 x(1,1) + 0.39745 x(2,1) >= 1
cut_clique_1(33,1):  0.25145 x(0,1) + 0.54560 x(1,1) + 0.95176 x(2,1) >= 1
cut_clique_1(34,1):  0.41204 x(0,1) + 0.99083 x(1,1) + 0.38561 x(2,1) >= 1
cut_clique_1(35,1):  0.49297 x(0,1) + 0.80711 x(1,1) + 0.41546 x(2,1) >= 1
cut_clique_1(36,1):  0.36875 x(0,1) + 0.90644 x(1,1) + 0.72044 x(2,1) >= 1
cut_clique_1(37,1):  0.38350 x(0,1) + 0.90644 x(1,1) + 0.67722 x(2,1) >= 1
cut_clique_1(38,1):  0.29822 x(0,1) + 0.67458 x(1,1) + 0.80049 x(2,1) >= 1
cut_clique_1(39,1):  0.38350 x(0,1) + 0.90898 x(1,1) + 0.67722 x(2,1) >= 1
cut_clique_1(40,1):  0.38320 x(0,1) + 0.97777 x(1,1) + 0.39698 x(2,1) >= 1
cut_clique_1(41,1):  0.38320 x(0,1) + 0.97777 x(1,1) + 0.38110 x(2,1) >= 1
cut_clique_1(42,1):  0.44580 x(0,1) + 0.91717 x(1,1) + 0.40180 x(2,1) >= 1
cut_clique_1(43,1):  0.34463 x(0,1) + 0.78821 x(1,1) + 0.72044 x(2,1) >= 1
cut_clique_1(44,1):  0.38350 x(0,1) + 0.98802 x(1,1) + 0.67722 x(2,1) >= 1
cut_clique_1(45,1):  0.44949 x(0,1) + 0.90396 x(1,1) + 0.39745 x(2,1) >= 1
cut_clique_1(46,1):  0.37200 x(0,1) + 0.89080 x(1,1) + 0.62453 x(2,1) >= 1
cut_clique_1(47,1):  0.26472 x(0,1) + 0.52552 x(1,1) + 0.95176 x(2,1) >= 1
cut_clique_1(48,1):  0.41204 x(0,1) + 0.99083 x(1,1) + 0.39348 x(2,1) >= 1
cut_clique_1(49,1):  0.29822 x(0,1) + 0.59049 x(1,1) + 0.90503 x(2,1) >= 1
cut_clique_1(0,2):  0.05078 x(1,2) + 0.05165 x(2,2) >= 1
cut_clique_1(1,2):  0.05290 x(1,2) + 0.05035 x(2,2) >= 1
cut_clique_1(2,2):  0.04862 x(1,2) + 0.05328 x(2,2) >= 1
cut_clique_1(3,2):  0.04596 x(1,2) + 0.05963 x(2,2) >= 1
cut_clique_1(4,2):  0.05903 x(1,2) + 0.04583 x(2,2) >= 1
cut_clique_1(5,2):  0.04694 x(1,2) + 0.05586 x(2,2) >= 1
cut_clique_1(6,2):  0.05398 x(1,2) + 0.04763 x(2,2) >= 1
cut_clique_1(7,2):  0.05435 x(1,2) + 0.04541 x(2,2) >= 1
cut_clique_1(8,2):  0.04820 x(1,2) + 0.05548 x(2,2) >= 1
cut_clique_1(9,2):  0.05489 x(1,2) + 0.04846 x(2,2) >= 1
cut_clique_1(10,2):  0.04439 x(1,2) + 0.06192 x(2,2) >= 1
cut_clique_1(11,2):  0.04926 x(1,2) + 0.05165 x(2,2) >= 1
cut_clique_1(12,2):  0.05452 x(1,2) + 0.05066 x(2,2) >= 1
cut_clique_1(13,2):  0.05844 x(1,2) + 0.04541 x(2,2) >= 1
cut_clique_1(14,2):  0.04596 x(1,2) + 0.06022 x(2,2) >= 1
cut_clique_1(15,2):  0.04850 x(1,2) + 0.05334 x(2,2) >= 1
cut_clique_1(16,2):  0.04439 x(1,2) + 0.06068 x(2,2) >= 1
cut_clique_1(17,2):  0.04996 x(1,2) + 0.05555 x(2,2) >= 1
cut_clique_1(18,2):  0.05290 x(1,2) + 0.04763 x(2,2) >= 1
cut_clique_1(19,2):  0.05105 x(1,2) + 0.05556 x(2,2) >= 1
cut_clique_1(20,2):  0.04820 x(1,2) + 0.05719 x(2,2) >= 1
cut_clique_1(21,2):  0.05290 x(1,2) + 0.04620 x(2,2) >= 1
cut_clique_1(22,2):  0.04551 x(1,2) + 0.05963 x(2,2) >= 1
cut_clique_1(23,2):  0.05844 x(1,2) + 0.04367 x(2,2) >= 1
cut_clique_1(24,2):  0.05517 x(1,2) + 0.05165 x(2,2) >= 1
cut_clique_1(25,2):  0.05489 x(1,2) + 0.04541 x(2,2) >= 1
cut_clique_1(26,2):  0.04961 x(1,2) + 0.05328 x(2,2) >= 1
cut_clique_1(27,2):  0.05672 x(1,2) + 0.04471 x(2,2) >= 1
cut_clique_1(28,2):  0.06038 x(1,2) + 0.04507 x(2,2) >= 1
cut_clique_1(29,2):  0.04889 x(1,2) + 0.05643 x(2,2) >= 1
cut_clique_1(30,2):  0.05351 x(1,2) + 0.04471 x(2,2) >= 1
cut_clique_1(31,2):  0.04451 x(1,2) + 0.06129 x(2,2) >= 1
cut_clique_1(32,2):  0.04956 x(1,2) + 0.05333 x(2,2) >= 1
cut_clique_1(33,2):  0.05489 x(1,2) + 0.04996 x(2,2) >= 1
cut_clique_1(34,2):  0.04820 x(1,2) + 0.05437 x(2,2) >= 1
cut_clique_1(35,2):  0.04694 x(1,2) + 0.05643 x(2,2) >= 1
cut_clique_1(36,2):  0.05006 x(1,2) + 0.05333 x(2,2) >= 1
cut_clique_1(37,2):  0.04644 x(1,2) + 0.05963 x(2,2) >= 1
cut_clique_1(38,2):  0.04438 x(1,2) + 0.06191 x(2,2) >= 1
cut_clique_1(39,2):  0.05351 x(1,2) + 0.04860 x(2,2) >= 1
cut_clique_1(40,2):  0.04939 x(1,2) + 0.05437 x(2,2) >= 1
cut_clique_1(41,2):  0.04850 x(1,2) + 0.05281 x(2,2) >= 1
cut_clique_1(42,2):  0.04939 x(1,2) + 0.05274 x(2,2) >= 1
cut_clique_1(43,2):  0.04772 x(1,2) + 0.05437 x(2,2) >= 1
cut_clique_1(44,2):  0.04889 x(1,2) + 0.05274 x(2,2) >= 1
cut_clique_1(45,2):  0.04850 x(1,2) + 0.05556 x(2,2) >= 1
cut_clique_1(46,2):  0.04850 x(1,2) + 0.05333 x(2,2) >= 1
cut_clique_1(47,2):  0.05144 x(1,2) + 0.05066 x(2,2) >= 1
cut_clique_1(48,2):  0.05452 x(1,2) + 0.04763 x(2,2) >= 1
cut_clique_1(49,2):  0.05144 x(1,2) + 0.05333 x(2,2) >= 1
cut_clique_2(0,1):  0.78984 x(0,1) + 0.03303 x(1,1) + 0.08627 x(2,1) >= 1
cut_clique_2(1,1):  0.79504 x(0,1) + 0.04095 x(1,1) + 0.08386 x(2,1) >= 1
cut_clique_2(2,1):  0.89577 x(0,1) + 0.05022 x(1,1) + 0.10295 x(2,1) >= 1
cut_clique_2(3,1):  0.78984 x(0,1) + 0.03600 x(1,1) + 0.08454 x(2,1) >= 1
cut_clique_2(4,1):  0.79504 x(0,1) + 0.04500 x(1,1) + 0.08386 x(2,1) >= 1
cut_clique_2(5,1):  0.79504 x(0,1) + 0.04500 x(1,1) + 0.08303 x(2,1) >= 1
cut_clique_2(6,1):  0.89577 x(0,1) + 0.04570 x(1,1) + 0.09780 x(2,1) >= 1
cut_clique_2(7,1):  0.78828 x(0,1) + 0.04296 x(1,1) + 0.09780 x(2,1) >= 1
cut_clique_2(8,1):  0.91384 x(0,1) + 0.04500 x(1,1) + 0.09124 x(2,1) >= 1
cut_clique_2(9,1):  0.78828 x(0,1) + 0.04570 x(1,1) + 0.09780 x(2,1) >= 1
cut_clique_2(10,1):  0.91301 x(0,1) + 0.03260 x(1,1) + 0.09672 x(2,1) >= 1
cut_clique_2(11,1):  0.67335 x(0,1) + 0.03511 x(1,1) + 0.08099 x(2,1) >= 1
cut_clique_2(12,1):  0.78828 x(0,1) + 0.03652 x(1,1) + 0.09780 x(2,1) >= 1
cut_clique_2(13,1):  0.67335 x(0,1) + 0.03511 x(1,1) + 0.07823 x(2,1) >= 1
cut_clique_2(14,1):  0.83731 x(0,1) + 0.04787 x(1,1) + 0.08411 x(2,1) >= 1
cut_clique_2(15,1):  0.89577 x(0,1) + 0.05022 x(1,1) + 0.09780 x(2,1) >= 1
cut_clique_2(16,1):  0.79218 x(0,1) + 0.03931 x(1,1) + 0.07296 x(2,1) >= 1
cut_clique_2(17,1):  0.84274 x(0,1) + 0.04095 x(1,1) + 0.07296 x(2,1) >= 1
cut_clique_2(18,1):  0.82934 x(0,1) + 0.03196 x(1,1) + 0.08792 x(2,1) >= 1
cut_clique_2(19,1):  0.67335 x(0,1) + 0.03405 x(1,1) + 0.07901 x(2,1) >= 1
cut_clique_2(20,1):  0.83763 x(0,1) + 0.03196 x(1,1) + 0.08792 x(2,1) >= 1
cut_clique_2(21,1):  0.67335 x(0,1) + 0.03303 x(1,1) + 0.08627 x(2,1) >= 1
cut_clique_2(22,1):  0.78984 x(0,1) + 0.03437 x(1,1) + 0.08792 x(2,1) >= 1
cut_clique_2(23,1):  0.91301 x(0,1) + 0.03260 x(1,1) + 0.08792 x(2,1) >= 1
cut_clique_2(24,1):  0.77436 x(0,1) + 0.03303 x(1,1) + 0.08627 x(2,1) >= 1
cut_clique_2(25,1):  0.78828 x(0,1) + 0.04163 x(1,1) + 0.09780 x(2,1) >= 1
cut_clique_2(26,1):  0.67335 x(0,1) + 0.03511 x(1,1) + 0.07451 x(2,1) >= 1
cut_clique_2(27,1):  0.79504 x(0,1) + 0.04095 x(1,1) + 0.07296 x(2,1) >= 1
cut_clique_2(28,1):  0.78984 x(0,1) + 0.03437 x(1,1) + 0.08454 x(2,1) >= 1
cut_clique_2(29,1):  0.78984 x(0,1) + 0.03997 x(1,1) + 0.08454 x(2,1) >= 1
cut_clique_2(30,1):  0.89577 x(0,1) + 0.05022 x(1,1) + 0.10614 x(2,1) >= 1
cut_clique_2(31,1):  0.67335 x(0,1) + 0.03303 x(1,1) + 0.08139 x(2,1) >= 1
cut_clique_2(32,1):  0.67335 x(0,1) + 0.03405 x(1,1) + 0.08139 x(2,1) >= 1
cut_clique_2(33,1):  0.79218 x(0,1) + 0.03511 x(1,1) + 0.08099 x(2,1) >= 1
cut_clique_2(34,1):  0.79218 x(0,1) + 0.04095 x(1,1) + 0.07296 x(2,1) >= 1
cut_clique_2(35,1):  0.83763 x(0,1) + 0.03260 x(1,1) + 0.08792 x(2,1) >= 1
cut_clique_2(36,1):  0.91384 x(0,1) + 0.04787 x(1,1) + 0.08075 x(2,1) >= 1
cut_clique_2(37,1):  0.74098 x(0,1) + 0.04787 x(1,1) + 0.08411 x(2,1) >= 1
cut_clique_2(38,1):  0.78828 x(0,1) + 0.04787 x(1,1) + 0.09780 x(2,1) >= 1
cut_clique_2(39,1):  0.85406 x(0,1) + 0.04787 x(1,1) + 0.08075 x(2,1) >= 1
cut_clique_2(40,1):  0.79218 x(0,1) + 0.03511 x(1,1) + 0.07296 x(2,1) >= 1
cut_clique_2(41,1):  0.85406 x(0,1) + 0.04787 x(1,1) + 0.08411 x(2,1) >= 1
cut_clique_2(42,1):  0.91301 x(0,1) + 0.03260 x(1,1) + 0.11026 x(2,1) >= 1
cut_clique_2(43,1):  0.79218 x(0,1) + 0.03695 x(1,1) + 0.07296 x(2,1) >= 1
cut_clique_2(44,1):  0.67335 x(0,1) + 0.03511 x(1,1) + 0.07901 x(2,1) >= 1
cut_clique_2(45,1):  0.91384 x(0,1) + 0.04787 x(1,1) + 0.09124 x(2,1) >= 1
cut_clique_2(46,1):  0.79504 x(0,1) + 0.04500 x(1,1) + 0.09124 x(2,1) >= 1
cut_clique_2(47,1):  0.78828 x(0,1) + 0.04787 x(1,1) + 0.08411 x(2,1) >= 1
cut_clique_2(48,1):  0.82934 x(0,1) + 0.03437 x(1,1) + 0.08792 x(2,1) >= 1
cut_clique_2(49,1):  0.78984 x(0,1) + 0.03303 x(1,1) + 0.08454 x(2,1) >= 1
cut_clique_3(0,1):  0.14629 x(1,1) + 0.55147 x(2,1) >= 1
cut_clique_3(1,1):  0.14540 x(1,1) + 0.38803 x(2,1) >= 1
cut_clique_3(2,1):  0.14567 x(1,1) + 0.52655 x(2,1) >= 1
cut_clique_3(3,1):  0.14297 x(1,1) + 0.38869 x(2,1) >= 1
cut_clique_3(4,1):  0.14376 x(1,1) + 0.77407 x(2,1) >= 1
cut_clique_3(5,1):  0.14422 x(1,1) + 0.68477 x(2,1) >= 1
cut_clique_3(6,1):  0.14297 x(1,1) + 0.26830 x(2,1) >= 1
cut_clique_3(7,1):  0.14540 x(1,1) + 0.37753 x(2,1) >= 1
cut_clique_3(8,1):  0.14540 x(1,1) + 0.43038 x(2,1) >= 1
cut_clique_3(9,1):  0.14540 x(1,1) + 0.41971 x(2,1) >= 1
cut_clique_3(10,1):  0.14297 x(1,1) + 0.34982 x(2,1) >= 1
cut_clique_3(11,1):  0.14297 x(1,1) + 0.29692 x(2,1) >= 1
cut_clique_3(12,1):  0.14297 x(1,1) + 0.34306 x(2,1) >= 1
cut_clique_3(13,1):  0.14297 x(1,1) + 0.30377 x(2,1) >= 1
cut_clique_3(14,1):  0.14297 x(1,1) + 0.38480 x(2,1) >= 1
cut_clique_3(15,1):  0.14297 x(1,1) + 0.25984 x(2,1) >= 1
cut_clique_3(16,1):  0.14297 x(1,1) + 0.28011 x(2,1) >= 1
cut_clique_3(17,1):  0.14297 x(1,1) + 0.28554 x(2,1) >= 1
cut_clique_3(18,1):  0.14297 x(1,1) + 0.32364 x(2,1) >= 1
cut_clique_3(19,1):  0.14540 x(1,1) + 0.44736 x(2,1) >= 1
cut_clique_3(20,1):  0.14422 x(1,1) + 0.74432 x(2,1) >= 1
cut_clique_3(21,1):  0.14376 x(1,1) + 0.78397 x(2,1) >= 1
cut_clique_3(22,1):  0.14297 x(1,1) + 0.27366 x(2,1) >= 1
cut_clique_3(23,1):  0.14297 x(1,1) + 0.25465 x(2,1) >= 1
cut_clique_3(24,1):  0.14376 x(1,1) + 0.82700 x(2,1) >= 1
cut_clique_3(25,1):  0.14628 x(1,1) + 0.57586 x(2,1) >= 1
cut_clique_3(26,1):  0.14628 x(1,1) + 0.55372 x(2,1) >= 1
cut_clique_3(27,1):  0.14297 x(1,1) + 0.25075 x(2,1) >= 1
cut_clique_3(28,1):  0.14540 x(1,1) + 0.55990 x(2,1) >= 1
cut_clique_3(29,1):  0.14422 x(1,1) + 0.96228 x(2,1) >= 1
cut_clique_3(30,1):  0.14376 x(1,1) + 0.69829 x(2,1) >= 1
cut_clique_3(31,1):  0.14540 x(1,1) + 0.45620 x(2,1) >= 1
cut_clique_3(32,1):  0.14359 x(1,1) + 0.31740 x(2,1) >= 1
cut_clique_3(33,1):  0.14376 x(1,1) + 0.75085 x(2,1) >= 1
cut_clique_3(34,1):  0.14540 x(1,1) + 0.54359 x(2,1) >= 1
cut_clique_3(35,1):  0.14540 x(1,1) + 0.47591 x(2,1) >= 1
cut_clique_3(36,1):  0.14540 x(1,1) + 0.38920 x(2,1) >= 1
cut_clique_3(37,1):  0.14376 x(1,1) + 0.71924 x(2,1) >= 1
cut_clique_3(38,1):  0.14296 x(1,1) + 0.38095 x(2,1) >= 1
cut_clique_3(39,1):  0.14296 x(1,1) + 0.38480 x(2,1) >= 1
cut_clique_3(40,1):  0.14540 x(1,1) + 0.56144 x(2,1) >= 1
cut_clique_3(41,1):  0.14376 x(1,1) + 0.86008 x(2,1) >= 1
cut_clique_3(42,1):  0.14540 x(1,1) + 0.50129 x(2,1) >= 1
cut_clique_3(43,1):  0.14451 x(1,1) + 0.96369 x(2,1) >= 1
cut_clique_3(44,1):  0.14297 x(1,1) + 0.35335 x(2,1) >= 1
cut_clique_3(45,1):  0.14567 x(1,1) + 0.49210 x(2,1) >= 1
cut_clique_3(46,1):  0.14422 x(1,1) + 0.87567 x(2,1) >= 1
cut_clique_3(47,1):  0.14540 x(1,1) + 0.57829 x(2,1) >= 1
cut_clique_3(48,1):  0.14540 x(1,1) + 0.36934 x(2,1) >= 1
cut_clique_3(49,1):  0.14540 x(1,1) + 0.37673 x(2,1) >= 1
cut_clique_3(0,2):  0.01692 x(0,2) + 0.05680 x(1,2) + 0.02318 x(2,2) >= 1
cut_clique_3(1,2):  0.01692 x(0,2) + 0.05680 x(1,2) + 0.02295 x(2,2) >= 1
cut_clique_3(2,2):  0.01489 x(0,2) + 0.05680 x(1,2) + 0.02295 x(2,2) >= 1
cut_clique_3(3,2):  0.01489 x(0,2) + 0.05680 x(1,2) + 0.02180 x(2,2) >= 1
cut_clique_3(4,2):  0.01392 x(0,2) + 0.05577 x(1,2) + 0.02411 x(2,2) >= 1
cut_clique_3(5,2):  0.01369 x(0,2) + 0.05933 x(1,2) + 0.02238 x(2,2) >= 1
cut_clique_3(6,2):  0.01369 x(0,2) + 0.05993 x(1,2) + 0.02238 x(2,2) >= 1
cut_clique_3(7,2):  0.01369 x(0,2) + 0.06172 x(1,2) + 0.02238 x(2,2) >= 1
cut_clique_3(8,2):  0.01342 x(0,2) + 0.06172 x(1,2) + 0.02238 x(2,2) >= 1
cut_clique_3(9,2):  0.01409 x(0,2) + 0.06172 x(1,2) + 0.02238 x(2,2) >= 1
cut_clique_3(10,2):  0.01657 x(0,2) + 0.05981 x(1,2) + 0.02149 x(2,2) >= 1
cut_clique_3(11,2):  0.01657 x(0,2) + 0.05682 x(1,2) + 0.02149 x(2,2) >= 1
cut_clique_3(12,2):  0.01657 x(0,2) + 0.05682 x(1,2) + 0.02170 x(2,2) >= 1
cut_clique_3(13,2):  0.01657 x(0,2) + 0.05682 x(1,2) + 0.01997 x(2,2) >= 1
cut_clique_3(14,2):  0.01640 x(0,2) + 0.05682 x(1,2) + 0.01997 x(2,2) >= 1
cut_clique_3(15,2):  0.01624 x(0,2) + 0.05682 x(1,2) + 0.01997 x(2,2) >= 1
cut_clique_3(16,2):  0.01673 x(0,2) + 0.06023 x(1,2) + 0.01777 x(2,2) >= 1
cut_clique_3(17,2):  0.01673 x(0,2) + 0.06023 x(1,2) + 0.01813 x(2,2) >= 1
cut_clique_3(18,2):  0.01824 x(0,2) + 0.06023 x(1,2) + 0.01813 x(2,2) >= 1
cut_clique_3(19,2):  0.01805 x(0,2) + 0.06023 x(1,2) + 0.01813 x(2,2) >= 1
cut_clique_3(20,2):  0.01805 x(0,2) + 0.05541 x(1,2) + 0.01813 x(2,2) >= 1
cut_clique_4(0,1):  0.14291 x(1,1) + 0.25054 x(2,1) >= 1
cut_clique_5(0,1):  0.26727 x(0,1) + 0.14315 x(1,1) >= 1
cut_clique_5(1,1):  0.26166 x(0,1) + 0.14556 x(1,1) >= 1
cut_clique_5(2,1):  0.25381 x(0,1) + 0.14556 x(1,1) >= 1
cut_clique_5(3,1):  0.25127 x(0,1) + 0.14556 x(1,1) >= 1
cut_clique_5(4,1):  0.25127 x(0,1) + 0.14410 x(1,1) >= 1
cut_clique_5(5,1):  0.26696 x(0,1) + 0.14511 x(1,1) >= 1
cut_clique_5(6,1):  0.25390 x(0,1) + 0.14315 x(1,1) >= 1
cut_clique_5(7,1):  0.25387 x(0,1) + 0.14320 x(1,1) >= 1
cut_clique_5(8,1):  0.25237 x(0,1) + 0.14720 x(1,1) >= 1
cut_clique_5(9,1):  0.25136 x(0,1) + 0.14320 x(1,1) >= 1
cut_clique_5(10,1):  0.26896 x(0,1) + 0.14320 x(1,1) >= 1
cut_clique_5(11,1):  0.26408 x(0,1) + 0.14366 x(1,1) >= 1
cut_clique_5(12,1):  0.27272 x(0,1) + 0.14315 x(1,1) >= 1
cut_clique_5(13,1):  0.25181 x(0,1) + 0.14709 x(1,1) >= 1
cut_clique_5(14,1):  0.25181 x(0,1) + 0.14755 x(1,1) >= 1
cut_clique_5(15,1):  0.25510 x(0,1) + 0.14731 x(1,1) >= 1
cut_clique_5(16,1):  0.25255 x(0,1) + 0.14731 x(1,1) >= 1
cut_clique_5(17,1):  0.25255 x(0,1) + 0.14436 x(1,1) >= 1
cut_clique_5(18,1):  0.25255 x(0,1) + 0.14292 x(1,1) >= 1
cut_clique_5(19,1):  0.28033 x(0,1) + 0.14292 x(1,1) >= 1
cut_clique_5(20,1):  0.27702 x(0,1) + 0.14320 x(1,1) >= 1
cut_clique_5(21,1):  0.25644 x(0,1) + 0.14320 x(1,1) >= 1
cut_clique_5(22,1):  0.25136 x(0,1) + 0.14392 x(1,1) >= 1
cut_clique_5(23,1):  0.25390 x(0,1) + 0.14366 x(1,1) >= 1
cut_clique_5(24,1):  0.25136 x(0,1) + 0.14838 x(1,1) >= 1
cut_clique_5(25,1):  0.25181 x(0,1) + 0.14921 x(1,1) >= 1
cut_clique_5(26,1):  0.27829 x(0,1) + 0.14315 x(1,1) >= 1
cut_clique_5(27,1):  0.25030 x(0,1) + 0.14607 x(1,1) >= 1
cut_clique_5(28,1):  0.26696 x(0,1) + 0.14366 x(1,1) >= 1
cut_clique_5(29,1):  0.25616 x(0,1) + 0.14366 x(1,1) >= 1
cut_clique_5(30,1):  0.26773 x(0,1) + 0.14578 x(1,1) >= 1
cut_clique_5(31,1):  0.25435 x(0,1) + 0.14578 x(1,1) >= 1
cut_clique_5(32,1):  0.25180 x(0,1) + 0.14578 x(1,1) >= 1
cut_clique_5(33,1):  0.25030 x(0,1) + 0.14315 x(1,1) >= 1
cut_clique_5(34,1):  0.25136 x(0,1) + 0.14797 x(1,1) >= 1
cut_clique_5(35,1):  0.25136 x(0,1) + 0.14612 x(1,1) >= 1
cut_clique_5(36,1):  0.25771 x(0,1) + 0.14511 x(1,1) >= 1
cut_clique_5(37,1):  0.25531 x(0,1) + 0.14315 x(1,1) >= 1
cut_clique_5(38,1):  0.26845 x(0,1) + 0.14511 x(1,1) >= 1
cut_clique_5(39,1):  0.25677 x(0,1) + 0.14355 x(1,1) >= 1
cut_clique_5(40,1):  0.25163 x(0,1) + 0.14355 x(1,1) >= 1
cut_clique_5(41,1):  0.26545 x(0,1) + 0.14511 x(1,1) >= 1
cut_clique_5(42,1):  0.25361 x(0,1) + 0.14366 x(1,1) >= 1
cut_clique_5(43,1):  0.25237 x(0,1) + 0.14425 x(1,1) >= 1
cut_clique_5(44,1):  0.25163 x(0,1) + 0.14339 x(1,1) >= 1
cut_clique_5(45,1):  0.26170 x(0,1) + 0.14339 x(1,1) >= 1
cut_clique_5(46,1):  0.25136 x(0,1) + 0.14366 x(1,1) >= 1
cut_clique_5(47,1):  0.26170 x(0,1) + 0.14511 x(1,1) >= 1
cut_clique_5(48,1):  0.26170 x(0,1) + 0.14366 x(1,1) >= 1
cut_clique_5(49,1):  0.25908 x(0,1) + 0.14366 x(1,1) >= 1
cut_clique_6(0,1):  0.01462 x(0,1) + 0.12963 x(1,1) + 0.26477 x(2,1) >= 1
cut_clique_6(1,1):  0.01287 x(0,1) + 0.12963 x(1,1) + 0.26477 x(2,1) >= 1
cut_clique_6(2,1):  0.01287 x(0,1) + 0.12963 x(1,1) + 0.25683 x(2,1) >= 1
cut_clique_6(3,1):  0.01261 x(0,1) + 0.12963 x(1,1) + 0.25683 x(2,1) >= 1
cut_clique_6(4,1):  0.01261 x(0,1) + 0.12963 x(1,1) + 0.23885 x(2,1) >= 1
cut_clique_6(5,1):  0.01110 x(0,1) + 0.12963 x(1,1) + 0.23885 x(2,1) >= 1
cut_clique_6(6,1):  0.00965 x(0,1) + 0.12963 x(1,1) + 0.23885 x(2,1) >= 1
cut_clique_6(7,1):  0.00965 x(0,1) + 0.12963 x(1,1) + 0.22691 x(2,1) >= 1
cut_clique_6(8,1):  0.00859 x(0,1) + 0.12963 x(1,1) + 0.22691 x(2,1) >= 1
cut_clique_6(9,1):  0.00859 x(0,1) + 0.13222 x(1,1) + 0.22691 x(2,1) >= 1
cut_clique_6(10,1):  0.00859 x(0,1) + 0.14808 x(1,1) + 0.22691 x(2,1) >= 1
Bounds
 0 <= C <= 44
 14 <= x(0,0) <= 43
 0 <= y(0,1,0) <= 1
 0 <= y(1,0,0) <= 1
 0 <= v(0,1,0)p <= 36
 0 <= v(0,1,0)n <= 23
 0 <= v(1,0,0)p <= 19
 0 <= v(1,0,0)n <= 40
 0 <= u(0,1,0)p <= 440
 0 <= u(0,1,0)n <= 440
 0 <= u(1,0,0)p <= 440
 0 <= u(1,0,0)n <= 440
 0 <= y(0,2,0) <= 1
 0 <= y(2,0,0) <= 1
 0 <= v(0,2,0)p <= 28
 0 <= v(0,2,0)n <= 30
 0 <= v(2,0,0)p <= 27
 0 <= v(2,0,0)n <= 31
 0 <= u(0,2,0)p <= 440
 0 <= u(0,2,0)n <= 440
 0 <= u(2,0,0)p <= 440
 0 <= u(2,0,0)n <= 440
 4 <= x(1,0) <= 34
 0 <= y(1,2,0) <= 1
 0 <= y(2,1,0) <= 1
 0 <= v(1,2,0)p <= 19
 0 <= v(1,2,0)n <= 40
 0 <= v(2,1,0)p <= 35
 0 <= v(2,1,0)n <= 24
 0 <= u(1,2,0)p <= 440
 0 <= u(1,2,0)n <= 440
 0 <= u(2,1,0)p <= 440
 0 <= u(2,1,0)n <= 440
 13 <= x(2,0) <= 42
 0 <= x(0,1) <= 29
 0 <= y(0,1,1) <= 1
 0 <= y(1,0,1) <= 1
 0 <= v(0,1,1)p <= 25
 0 <= v(0,1,1)n <= 34
 0 <= v(1,0,1)p <= 23
 0 <= v(1,0,1)n <= 36
 0 <= u(0,1,1)p <= 440
 0 <= u(0,1,1)n <= 440
 0 <= u(1,0,1)p <= 440
 0 <= u(1,0,1)n <= 440
 0 <= y(0,2,1) <= 1
 0 <= y(2,0,1) <= 1
 0 <= v(0,2,1)p <= 22
 0 <= v(0,2,1)n <= 36
 0 <= v(2,0,1)p <= 22
 0 <= v(2,0,1)n <= 36
 0 <= u(0,2,1)p <= 440
 0 <= u(0,2,1)n <= 440
 0 <= u(2,0,1)p <= 440
 0 <= u(2,0,1)n <= 440
 0 <= x(1,1) <= 30
 0 <= y(1,2,1) <= 1
 0 <= y(2,1,1) <= 1
 0 <= v(1,2,1)p <= 23
 0 <= v(1,2,1)n <= 36
 0 <= v(2,1,1)p <= 25
 0 <= v(2,1,1)n <= 34
 0 <= u(1,2,1)p <= 440
 0 <= u(1,2,1)n <= 440
 0 <= u(2,1,1)p <= 440
 0 <= u(2,1,1)n <= 440
 0 <= x(2,1) <= 29
 7 <= x(0,2) <= 36
 0 <= y(0,1,2) <= 1
 0 <= y(1,0,2) <= 1
 0 <= v(0,1,2)p <= 22
 0 <= v(0,1,2)n <= 37
 0 <= v(1,0,2)p <= 23
 0 <= v(1,0,2)n <= 36
 0 <= u(0,1,2)p <= 440
 0 <= u(0,1,2)n <= 440
 0 <= u(1,0,2)p <= 440
 0 <= u(1,0,2)n <= 440
 0 <= y(0,2,2) <= 1
 0 <= y(2,0,2) <= 1
 0 <= v(0,2,2)p <= 23
 0 <= v(0,2,2)n <= 35
 0 <= v(2,0,2)p <= 22
 0 <= v(2,0,2)n <= 36
 0 <= u(0,2,2)p <= 440
 0 <= u(0,2,2)n <= 440
 0 <= u(2,0,2)p <= 440
 0 <= u(2,0,2)n <= 440
 7 <= x(1,2) <= 37
 0 <= y(1,2,2) <= 1
 0 <= y(2,1,2) <= 1
 0 <= v(1,2,2)p <= 24
 0 <= v(1,2,2)n <= 35
 0 <= v(2,1,2)p <= 22
 0 <= v(2,1,2)n <= 37
 0 <= u(1,2,2)p <= 440
 0 <= u(1,2,2)n <= 440
 0 <= u(2,1,2)p <= 440
 0 <= u(2,1,2)n <= 440
 7 <= x(2,2) <= 36
End
